NAME : morphed23-5-13
COMMENT : Generated using the function morphInstances from the R-package netgen (Bossek,2015) - Number of clusters: 5 Alpha: 0.5
TYPE : TSP
DIMENSION : 23
EDGE_WEIGHT_TYPE : EUC_2D
NODE_COORD_SECTION
1 74.4187053707 66.3557380707
2 25.7532563308 12.546582538
3 22.2401200876 57.9325440081
4 11.3709894021 14.6418728637
5 96.9312009336 68.8228461392
6 7.9231695645 35.6542763931
7 60.8804361202 67.8507878209
8 59.7604432586 31.5060215341
9 91.9117531287 65.0466904679
10 5.3309508717 74.5613019013
11 68.7263176676 81.2380792251
12 92.0051209817 73.2728424055
13 73.6320125733 8.4234697684
14 44.8948082787 39.6675012977
15 55.5657385609 3.0180746377
16 29.0514182061 69.2067525224
17 32.7130959239 15.7655379146
18 33.5574289425 56.9944407167
19 71.487253217 14.9940590669
20 81.2526135268 95.4147154731
21 12.0458939708 59.8445444818
22 36.720474129 59.8673228997
23 69.9678551767 88.7561841358
EOF
